Version identifier: 20.1.0.0 | 2020-11-10 | 9bedb6d68
Tried aggregator 2 times.
MIP Presolve eliminated 1283 rows and 699 columns.
MIP Presolve modified 2628 coefficients.
Aggregator did 151 substitutions.
Reduced MIP has 1122 rows, 957 columns, and 3577 nonzeros.
Reduced MIP has 274 binaries, 683 generals, 0 SOSs, and 0 indicators.
Presolve time = 0.01 sec. (5.67 ticks)
Found incumbent of value 59.000000 after 0.02 sec. (9.88 ticks)
Probing fixed 30 vars, tightened 278 bounds.
Probing time = 0.00 sec. (1.19 ticks)
Tried aggregator 2 times.
Detecting symmetries...
MIP Presolve eliminated 450 rows and 42 columns.
MIP Presolve modified 90 coefficients.
Aggregator did 8 substitutions.
Reduced MIP has 664 rows, 907 columns, and 2173 nonzeros.
Reduced MIP has 340 binaries, 567 generals, 0 SOSs, and 0 indicators.
Presolve time = 0.01 sec. (3.21 ticks)
Probing time = 0.00 sec. (0.18 ticks)
Clique table members: 1.
MIP emphasis: balance optimality and feasibility.
MIP search method: dynamic search.
Parallel mode: deterministic, using up to 24 threads.
Root relaxation solution time = 0.00 sec. (2.03 ticks)

        Nodes                                         Cuts/
   Node  Left     Objective  IInf  Best Integer    Best Bound    ItCnt     Gap

*     0+    0                           59.0000        0.0000           100.00%
      0     0        0.0000    38       59.0000        0.0000      199  100.00%
      0     0        0.4500   102       59.0000     Cuts: 150      438   99.24%
*     0+    0                           30.0000        0.4500            98.50%
      0     0        1.7500   212       30.0000      Cuts: 93      540   94.17%
      0     0        2.6667   121       30.0000      Cuts: 68      643   91.11%
      0     0        2.6667   126       30.0000      Cuts: 62      683   91.11%
      0     0        2.6667   117       30.0000      Cuts: 49      732   91.11%
      0     0        3.0000   106       30.0000      Cuts: 83      801   90.00%
      0     0        3.0000   112       30.0000      Cuts: 48      850   90.00%
*     0+    0                           25.0000        3.0000            88.00%
*     0+    0                           23.0000        3.0000            86.96%
*     0+    0                           14.0000        3.0000            78.57%
      0     0        cutoff             14.0000       14.0000      850    0.00%
Elapsed time = 0.23 sec. (119.46 ticks, tree = 0.01 MB, solutions = 5)

Implied bound cuts applied:  28
Flow cuts applied:  3
Mixed integer rounding cuts applied:  11
Zero-half cuts applied:  65
Lift and project cuts applied:  1
Gomory fractional cuts applied:  23

Root node processing (before b&c):
  Real time             =    0.23 sec. (119.58 ticks)
Parallel b&c, 24 threads:
  Real time             =    0.00 sec. (0.00 ticks)
  Sync time (average)   =    0.00 sec.
  Wait time (average)   =    0.00 sec.
                          ------------
Total (root+branch&cut) =    0.23 sec. (119.58 ticks)

Solution status = Optimal
Solution LB = 14
Solution UB = 14
Runtime = 0.243341 seconds
	Command being timed: "/home/min/git_repos/CS598MEBProject/CNT-ILP/build/cnt -s 2 ./output/k6_n30/simC_c1_k6_n30_u2_s3_del04.input-right.cnp"
	User time (seconds): 1.99
	System time (seconds): 0.06
	Percent of CPU this job got: 784%
	Elapsed (wall clock) time (h:mm:ss or m:ss): 0:00.26
	Average shared text size (kbytes): 0
	Average unshared data size (kbytes): 0
	Average stack size (kbytes): 0
	Average total size (kbytes): 0
	Maximum resident set size (kbytes): 73960
	Average resident set size (kbytes): 0
	Major (requiring I/O) page faults: 0
	Minor (reclaiming a frame) page faults: 16031
	Voluntary context switches: 2842
	Involuntary context switches: 209
	Swaps: 0
	File system inputs: 0
	File system outputs: 16
	Socket messages sent: 0
	Socket messages received: 0
	Signals delivered: 0
	Page size (bytes): 4096
	Exit status: 0
